<instance format="XCSP3" type="CSP">
  <variables>
    <var id="x0"> 2 7 13 15 16 </var>
    <var id="x1"> 2 7 10 13 </var>
    <var id="x2"> 0 2 7 10 </var>
    <var id="x3"> 0 5 13 16 </var>
    <var id="x4"> 2 5 7 15 </var>
    <var id="x5"> 2 7 10 13 16 </var>
    <var id="x6"> 2 10 13 16 </var>
    <var id="x7"> 0 2 5 10 16 </var>
    <var id="x8"> 6 10 16 17 </var>
    <var id="x9"> 2 6 10 </var>
    <var id="x10"> 14 </var>
    <var id="x11"> 6 11 16 17 </var>
    <var id="x12"> 2 3 6 10 11 16 </var>
    <var id="x13"> 2 10 14 16 </var>
    <var id="x14"> 2 3 11 16 17 </var>
    <var id="x15"> 6 10 14 17 </var>
    <var id="x16"> 4 5 12 </var>
    <var id="x17"> 2 6 13 </var>
    <var id="x18"> 2 6 10 12 13 </var>
    <var id="x19"> 0 4 13 </var>
    <var id="x20"> 0 2 4 5 </var>
    <var id="x21"> 2 10 13 </var>
    <var id="x22"> 2 5 6 </var>
    <var id="x23"> 0 5 6 10 </var>
    <var id="x24"> 12 15 16 </var>
    <var id="x25"> 2 8 15..17 </var>
    <var id="x26"> 2 8..10 12 </var>
    <var id="x27"> 2 8 16 </var>
    <var id="x28"> 2 8 15 </var>
    <var id="x29"> 9 10 16 </var>
    <var id="x30"> 2 9 10 16 </var>
    <var id="x31"> 2 9 10 16 </var>
    <var id="x32"> 4 5 12 15 16 </var>
    <var id="x33"> 3 8 12 16 </var>
    <var id="x34"> 4 8 </var>
    <var id="x35"> 4 8 15 </var>
    <var id="x36"> 3 4 8 16 </var>
    <var id="x37"> 3 6 16 </var>
    <var id="x38"> 3 12 15 16 </var>
    <var id="x39"> 4 6 15 </var>
    <var id="x40"> 0 9 </var>
    <var id="x41"> 2 7 15 </var>
    <var id="x42"> 0 3 7 </var>
    <var id="x43"> 0 2 3 14 </var>
    <var id="x44"> 2 7 11 15 </var>
    <var id="x45"> 2 3 7 </var>
    <var id="x46"> 0 2 9 14 </var>
    <var id="x47"> 2 3 11 15 </var>
    <var id="x48"> 0 6 16 </var>
    <var id="x49"> 0 1 3 7 8 13 16 </var>
    <var id="x50"> 0 7 8 </var>
    <var id="x51"> 0 8 13 16 </var>
    <var id="x52"> 6 7 13 16 </var>
    <var id="x53"> 0 3 6 7 16 </var>
    <var id="x54"> 3 13 16 </var>
    <var id="x55"> 0 6 </var>
    <var id="x56"> 4 9 10 16 17 </var>
    <var id="x57"> 4 5 11 16 </var>
    <var id="x58"> 13 16 17 </var>
    <var id="x59"> 4 9 10 17 </var>
    <var id="x60"> 4 5 16 </var>
    <var id="x61"> 4 9 11 13 16 17 </var>
    <var id="x62"> 5 11 </var>
    <var id="x63"> 5 9 10 16 </var>
    <var id="x64"> 2 6 8 13 15 </var>
    <var id="x65"> 2 6 8 13 </var>
    <var id="x66"> 0 2 4 8 </var>
    <var id="x67"> 0 4 8 13..15 </var>
    <var id="x68"> 2 6 8 15 </var>
    <var id="x69"> 0 6 </var>
    <var id="x70"> 2 6 13 </var>
    <var id="x71"> 0 2 4 14 </var>
    <var id="x72"> 4 6 9 12 16 </var>
    <var id="x73"> 7 12 13 16 </var>
    <var id="x74"> 2 6 7 9 12 13 </var>
    <var id="x75"> 4 7 13 </var>
    <var id="x76"> 2 4 16 </var>
    <var id="x77"> 4 6 7 9 13 16 </var>
    <var id="x78"> 2 4 7 13 16 </var>
    <var id="x79"> 2 12 13 16 </var>
    <var id="x80"> 7 13 16 </var>
    <var id="x81"> 4 7 13..15 </var>
    <var id="x82"> 4 7 13 16 </var>
    <var id="x83"> 4 7 10 13 16 </var>
    <var id="x84"> 10 13 16 </var>
    <var id="x85"> 13 15 16 </var>
    <var id="x86"> 4 10 14 15 </var>
    <var id="x87"> 4 8 13 16 </var>
    <var id="x88"> 2 11 13 </var>
    <var id="x89"> 4 9 11 13 16 </var>
    <var id="x90"> 2 8 11 </var>
    <var id="x91"> 9 16 </var>
    <var id="x92"> 2 4 9 16 </var>
    <var id="x93"> 4 9 </var>
    <var id="x94"> 0 10 16 17 </var>
    <var id="x95"> 16 </var>
    <var id="x96"> 0 8 14 </var>
    <var id="x97"> 0 2 3 8 14 16 </var>
    <var id="x98"> 0 8 14 16 </var>
    <var id="x99"> 2 3 8 </var>
    <var id="x100"> 2 3 16 17 </var>
    <var id="x101"> 0 10 14 17 </var>
    <var id="x102"> 2 7 16 17 </var>
    <var id="x103"> 0 3 7 16 </var>
    <var id="x104"> 0 2 7 9 17 </var>
    <var id="x105"> 2 7 11 17 </var>
    <var id="x106"> 7 9 11 16 17 </var>
    <var id="x107"> 2 3 7 16 </var>
    <var id="x108"> 2 3 9 11 16 </var>
    <var id="x109"> 0 2 9 16 </var>
    <var id="x110"> 4 6 10 12 </var>
    <var id="x111"> 6 7 13 </var>
    <var id="x112"> 4 5 13 </var>
    <var id="x113"> 7 10 13 </var>
    <var id="x114"> 4 7 10 13 </var>
    <var id="x115"> 5..7 10 </var>
    <var id="x116"> 4 5 10 </var>
    <var id="x117"> 0 4 9 16 17 </var>
    <var id="x118"> 0 7 8 16 </var>
    <var id="x119"> 0 4 7..9 17 </var>
    <var id="x120"> 0 4 8 16 </var>
    <var id="x121"> 7 15 17 </var>
    <var id="x122"> 4 7 9 16 17 </var>
    <var id="x123"> 15..17 </var>
    <var id="x124"> 0 4 9 15 17 </var>
    <var id="x125"> 1 4 5 11 </var>
    <var id="x126"> 0 1 7 8 </var>
    <var id="x127"> 7 8 </var>
    <var id="x128"> 0 1 4 7 8 </var>
    <var id="x129"> 0 4 5 8 </var>
    <var id="x130"> 7 11 17 </var>
    <var id="x131"> 5 7 8 11 </var>
    <var id="x132"> 0 4 17 </var>
    <var id="x133"> 1 </var>
    <var id="x134"> 6..10 13 </var>
    <var id="x135"> 7..10 </var>
    <var id="x136"> 3 8 </var>
    <var id="x137"> 8 13 </var>
    <var id="x138"> 3 7 8 10 13 </var>
    <var id="x139"> 3 6 7 9 10 </var>
    <var id="x140"> 3 6 9 10 13 </var>
  </variables>
  <constraints>
    <group>
      <allDifferent> %... </allDifferent>
      <args> x0 x1 x2 x3 x4 x5 x6 x7 </args>
      <args> x8 x9 x10 x11 x12 x13 x14 x15 </args>
      <args> x16 x17 x18 x19 x20 x21 x22 x23 </args>
      <args> x24 x25 x26 x27 x28 x29 x30 x31 </args>
      <args> x32 x33 x34 x35 x36 x37 x38 x39 </args>
      <args> x40 x41 x42 x43 x44 x45 x46 x47 </args>
      <args> x48 x49 x50 x51 x52 x53 x54 x55 </args>
      <args> x56 x57 x58 x59 x60 x61 x62 x63 </args>
      <args> x64 x65 x66 x67 x68 x69 x70 x71 </args>
      <args> x72 x73 x74 x75 x76 x77 x78 x79 </args>
      <args> x80 x81 x82 x83 x84 x85 x86 </args>
      <args> x87 x88 x89 x90 x91 x92 x93 </args>
      <args> x94 x95 x96 x97 x98 x99 x100 x101 </args>
      <args> x102 x103 x104 x105 x106 x107 x108 x109 </args>
      <args> x110 x111 x112 x113 x114 x115 x116 </args>
      <args> x117 x118 x119 x120 x121 x122 x123 x124 </args>
      <args> x125 x126 x127 x128 x129 x130 x131 x132 </args>
      <args> x133 x134 x135 x136 x137 x138 x139 x140 </args>
      <args> x8 x40 x48 x56 x72 x94 x110 x117 </args>
      <args> x16 x24 x32 x57 x95 x125 x133 </args>
      <args> x0 x17 x25 x41 x58 x64 x102 x111 </args>
      <args> x33 x42 x49 x73 x80 x103 x118 x126 </args>
      <args> x1 x9 x18 x26 x65 x74 x127 x134 </args>
      <args> x2 x34 x50 x59 x66 x104 x119 x135 </args>
      <args> x10 x19 x35 x67 x75 x81 x96 x128 </args>
      <args> x20 x27 x43 x60 x76 x97 x120 x136 </args>
      <args> x3 x51 x87 x98 x112 x129 x137 </args>
      <args> x21 x44 x88 x105 x113 x121 x130 </args>
      <args> x11 x52 x61 x77 x82 x89 x106 x122 </args>
      <args> x4 x22 x28 x62 x68 x90 x99 x131 </args>
      <args> x5 x36 x45 x78 x83 x107 x114 x138 </args>
      <args> x23 x29 x53 x63 x69 x91 x115 x139 </args>
      <args> x6 x12 x30 x37 x70 x84 x108 x140 </args>
      <args> x7 x13 x31 x46 x71 x92 x109 x116 </args>
      <args> x14 x38 x47 x54 x79 x85 x100 x123 </args>
      <args> x15 x39 x55 x86 x93 x101 x124 x132 </args>
    </group>
  </constraints>
</instance>

